139
0 118 77 62 53 113 55 79 54 49 
90 16 42 127 45 106 46 120 123 40 
102 98 32 21 91 65 122 129 99 96 
109 30 11 9 25 85 133 105 111 63 
88 81 134 52 15 56 20 103 58 128 
70 124 100 8 114 57 119 28 34 125 
117 83 78 135 112 5 33 97 110 23 
7 37 60 89 121 132 29 4 2 61 
116 93 38 137 3 64 13 59 73 138 
36 6 14 104 131 48 95 94 80 136 
126 107 76 17 19 31 10 101 67 72 
68 27 43 69 18 130 39 74 87 44 
84 51 35 47 41 92 24 1 66 75 
50 71 86 82 108 26 22 12 115 
